data;

# Definindo valores para o parâmetro lambda
param lambda :=
    1 1 50
    1 2 50
    1 3 50
    1 4 50
    2 1 50
    2 2 50
    2 3 50
    2 4 50
    3 1 10
    3 2 0
    3 3 0
    3 4 0;


# Definindo valores para o parâmetro tau
param tau :=
    1 1 30
    1 2 30
    1 3 30
    1 4 30
    2 1 40
    2 2 40
    2 3 40
    2 4 40
    3 1 6
    3 2 0
    3 3 0
    3 4 0;
# Definindo valores para o parâmetro hemax
param hemax :=
1 30
2 30
3 30
4 30
5 30
6 30
7 30
8 30
9 30
10 30
11 30
12 30
13 30
14 30
15 30
16 30
17 30
18 30
19 30
20 30
21 30
22 30
23 30;

end;